(declare-fun a () Real)
(declare-fun b () Real)
(assert (and (< 0 a) (< b 35294400) (> b 35294376) (= 1 (- (* (- b 35294400) (- b 31764720) (- b 31764720) (- b 31764720)) (* a a 117187 (- a (- b 31764720)) (- a (- b 31764720)) (- a (- b 31764720)) (- a (- b 31764720)))))))
(check-sat)
